#BEGIN: [Fri Oct 28 11:37:00 2022]
#HOST: mini08.local
#TIMELIMIT: 10800
#MEMLIMIT: 0
#FREQ: 10
#SOLVER: anSolverAsp221027
#CSP: benchmark/automata-network/star_asp/star08.lp
#K: 16
#COMMAND: /Users/soh/app/finding_attractors/incremental-finding.sh benchmark/automata-network/star_asp/star08.lp 16
benchmark/automata-network/star_asp/star08.lp 1
-e %----- The attractor computed for benchmark/automata-network/star_asp/star08.lp 
 %----- The size of the attractor = 1 

clingo version 5.4.0
Reading from ...from_paper2017/scripts/fixed-points.lp ...
Solving...
UNSATISFIABLE

Models       : 0
Calls        : 1
Time         : 0.009s (Solving: 0.00s 1st Model: 0.00s Unsat: 0.00s)
CPU Time     : 0.004s
benchmark/automata-network/star_asp/star08.lp 2
-e %----- The attractor computed for benchmark/automata-network/star_asp/star08.lp 
 %----- The size of the attractor = 2 
-e   %----- The attractor computed with Asynchronous Dynamics 

-e CMD: clingo /Users/soh/app/finding_attractors/01_original_from_paper2017/scripts/asynch.lp /Users/soh/app/finding_attractors/02_attractors-new/with-cycle/attractors-preF.lp /Users/soh/app/finding_attractors/02_attractors-new/with-cycle/attractors-postF.lp benchmark/automata-network/star_asp/star08.lp --const n=2 0

clingo version 5.4.0
Reading from ...ginal_from_paper2017/scripts/asynch.lp ...
Solving...
UNSATISFIABLE

Models       : 0
Calls        : 1
Time         : 0.047s (Solving: 0.00s 1st Model: 0.00s Unsat: 0.00s)
CPU Time     : 0.039s
[ Calling Python ]
[ Solving ready ]
*** Found: 0; skipped: 0
benchmark/automata-network/star_asp/star08.lp 3
-e %----- The attractor computed for benchmark/automata-network/star_asp/star08.lp 
 %----- The size of the attractor = 3 
-e   %----- The attractor computed with Asynchronous Dynamics 

-e CMD: clingo /Users/soh/app/finding_attractors/01_original_from_paper2017/scripts/asynch.lp /Users/soh/app/finding_attractors/02_attractors-new/with-cycle/attractors-preF.lp /Users/soh/app/finding_attractors/02_attractors-new/with-cycle/attractors-postF.lp benchmark/automata-network/star_asp/star08.lp --const n=3 0

clingo version 5.4.0
Reading from ...ginal_from_paper2017/scripts/asynch.lp ...
Solving...
UNSATISFIABLE

Models       : 0
Calls        : 1
Time         : 0.050s (Solving: 0.00s 1st Model: 0.00s Unsat: 0.00s)
CPU Time     : 0.043s
[ Calling Python ]
[ Solving ready ]
*** Found: 0; skipped: 0
benchmark/automata-network/star_asp/star08.lp 4
-e %----- The attractor computed for benchmark/automata-network/star_asp/star08.lp 
 %----- The size of the attractor = 4 
-e   %----- The attractor computed with Asynchronous Dynamics 

-e CMD: clingo /Users/soh/app/finding_attractors/01_original_from_paper2017/scripts/asynch.lp /Users/soh/app/finding_attractors/02_attractors-new/with-cycle/attractors-preF.lp /Users/soh/app/finding_attractors/02_attractors-new/with-cycle/attractors-postF.lp benchmark/automata-network/star_asp/star08.lp --const n=4 0

clingo version 5.4.0
Reading from ...ginal_from_paper2017/scripts/asynch.lp ...
Solving...
UNSATISFIABLE

Models       : 0
Calls        : 1
Time         : 0.064s (Solving: 0.00s 1st Model: 0.00s Unsat: 0.00s)
CPU Time     : 0.058s
[ Calling Python ]
[ Solving ready ]
*** Found: 0; skipped: 0
benchmark/automata-network/star_asp/star08.lp 5
-e %----- The attractor computed for benchmark/automata-network/star_asp/star08.lp 
 %----- The size of the attractor = 5 
-e   %----- The attractor computed with Asynchronous Dynamics 

-e CMD: clingo /Users/soh/app/finding_attractors/01_original_from_paper2017/scripts/asynch.lp /Users/soh/app/finding_attractors/02_attractors-new/with-cycle/attractors-preF.lp /Users/soh/app/finding_attractors/02_attractors-new/with-cycle/attractors-postF.lp benchmark/automata-network/star_asp/star08.lp --const n=5 0

clingo version 5.4.0
Reading from ...ginal_from_paper2017/scripts/asynch.lp ...
Solving...
UNSATISFIABLE

Models       : 0
Calls        : 1
Time         : 0.082s (Solving: 0.01s 1st Model: 0.00s Unsat: 0.01s)
CPU Time     : 0.074s
[ Calling Python ]
[ Solving ready ]
*** Found: 0; skipped: 0
benchmark/automata-network/star_asp/star08.lp 6
-e %----- The attractor computed for benchmark/automata-network/star_asp/star08.lp 
 %----- The size of the attractor = 6 
-e   %----- The attractor computed with Asynchronous Dynamics 

-e CMD: clingo /Users/soh/app/finding_attractors/01_original_from_paper2017/scripts/asynch.lp /Users/soh/app/finding_attractors/02_attractors-new/with-cycle/attractors-preF.lp /Users/soh/app/finding_attractors/02_attractors-new/with-cycle/attractors-postF.lp benchmark/automata-network/star_asp/star08.lp --const n=6 0

clingo version 5.4.0
Reading from ...ginal_from_paper2017/scripts/asynch.lp ...
Solving...
UNSATISFIABLE

Models       : 0
Calls        : 1
Time         : 0.118s (Solving: 0.01s 1st Model: 0.00s Unsat: 0.01s)
CPU Time     : 0.111s
[ Calling Python ]
[ Solving ready ]
*** Found: 0; skipped: 0
benchmark/automata-network/star_asp/star08.lp 7
-e %----- The attractor computed for benchmark/automata-network/star_asp/star08.lp 
 %----- The size of the attractor = 7 
-e   %----- The attractor computed with Asynchronous Dynamics 

-e CMD: clingo /Users/soh/app/finding_attractors/01_original_from_paper2017/scripts/asynch.lp /Users/soh/app/finding_attractors/02_attractors-new/with-cycle/attractors-preF.lp /Users/soh/app/finding_attractors/02_attractors-new/with-cycle/attractors-postF.lp benchmark/automata-network/star_asp/star08.lp --const n=7 0

clingo version 5.4.0
Reading from ...ginal_from_paper2017/scripts/asynch.lp ...
Solving...
UNSATISFIABLE

Models       : 0
Calls        : 1
Time         : 0.186s (Solving: 0.03s 1st Model: 0.00s Unsat: 0.03s)
CPU Time     : 0.180s
[ Calling Python ]
[ Solving ready ]
*** Found: 0; skipped: 0
benchmark/automata-network/star_asp/star08.lp 8
-e %----- The attractor computed for benchmark/automata-network/star_asp/star08.lp 
 %----- The size of the attractor = 8 
-e   %----- The attractor computed with Asynchronous Dynamics 

-e CMD: clingo /Users/soh/app/finding_attractors/01_original_from_paper2017/scripts/asynch.lp /Users/soh/app/finding_attractors/02_attractors-new/with-cycle/attractors-preF.lp /Users/soh/app/finding_attractors/02_attractors-new/with-cycle/attractors-postF.lp benchmark/automata-network/star_asp/star08.lp --const n=8 0

clingo version 5.4.0
Reading from ...ginal_from_paper2017/scripts/asynch.lp ...
Solving...
UNSATISFIABLE

Models       : 0
Calls        : 1
Time         : 0.291s (Solving: 0.07s 1st Model: 0.00s Unsat: 0.07s)
CPU Time     : 0.286s
[ Calling Python ]
[ Solving ready ]
*** Found: 0; skipped: 0
benchmark/automata-network/star_asp/star08.lp 9
-e %----- The attractor computed for benchmark/automata-network/star_asp/star08.lp 
 %----- The size of the attractor = 9 
-e   %----- The attractor computed with Asynchronous Dynamics 

-e CMD: clingo /Users/soh/app/finding_attractors/01_original_from_paper2017/scripts/asynch.lp /Users/soh/app/finding_attractors/02_attractors-new/with-cycle/attractors-preF.lp /Users/soh/app/finding_attractors/02_attractors-new/with-cycle/attractors-postF.lp benchmark/automata-network/star_asp/star08.lp --const n=9 0

clingo version 5.4.0
Reading from ...ginal_from_paper2017/scripts/asynch.lp ...
Solving...
UNSATISFIABLE

Models       : 0
Calls        : 1
Time         : 0.582s (Solving: 0.16s 1st Model: 0.00s Unsat: 0.16s)
CPU Time     : 0.573s
[ Calling Python ]
[ Solving ready ]
*** Found: 0; skipped: 0
benchmark/automata-network/star_asp/star08.lp 10
-e %----- The attractor computed for benchmark/automata-network/star_asp/star08.lp 
 %----- The size of the attractor = 10 
-e   %----- The attractor computed with Asynchronous Dynamics 

-e CMD: clingo /Users/soh/app/finding_attractors/01_original_from_paper2017/scripts/asynch.lp /Users/soh/app/finding_attractors/02_attractors-new/with-cycle/attractors-preF.lp /Users/soh/app/finding_attractors/02_attractors-new/with-cycle/attractors-postF.lp benchmark/automata-network/star_asp/star08.lp --const n=10 0

clingo version 5.4.0
Reading from ...ginal_from_paper2017/scripts/asynch.lp ...
Solving...
UNSATISFIABLE

Models       : 0
Calls        : 1
Time         : 0.865s (Solving: 0.31s 1st Model: 0.00s Unsat: 0.31s)
CPU Time     : 0.859s
[ Calling Python ]
[ Solving ready ]
*** Found: 0; skipped: 0
benchmark/automata-network/star_asp/star08.lp 11
-e %----- The attractor computed for benchmark/automata-network/star_asp/star08.lp 
 %----- The size of the attractor = 11 
-e   %----- The attractor computed with Asynchronous Dynamics 

-e CMD: clingo /Users/soh/app/finding_attractors/01_original_from_paper2017/scripts/asynch.lp /Users/soh/app/finding_attractors/02_attractors-new/with-cycle/attractors-preF.lp /Users/soh/app/finding_attractors/02_attractors-new/with-cycle/attractors-postF.lp benchmark/automata-network/star_asp/star08.lp --const n=11 0

clingo version 5.4.0
Reading from ...ginal_from_paper2017/scripts/asynch.lp ...
Solving...
UNSATISFIABLE

Models       : 0
Calls        : 1
Time         : 1.609s (Solving: 0.86s 1st Model: 0.00s Unsat: 0.86s)
CPU Time     : 1.603s
[ Calling Python ]
[ Solving ready ]
*** Found: 0; skipped: 0
benchmark/automata-network/star_asp/star08.lp 12
-e %----- The attractor computed for benchmark/automata-network/star_asp/star08.lp 
 %----- The size of the attractor = 12 
-e   %----- The attractor computed with Asynchronous Dynamics 

-e CMD: clingo /Users/soh/app/finding_attractors/01_original_from_paper2017/scripts/asynch.lp /Users/soh/app/finding_attractors/02_attractors-new/with-cycle/attractors-preF.lp /Users/soh/app/finding_attractors/02_attractors-new/with-cycle/attractors-postF.lp benchmark/automata-network/star_asp/star08.lp --const n=12 0

clingo version 5.4.0
Reading from ...ginal_from_paper2017/scripts/asynch.lp ...
Solving...
UNSATISFIABLE

Models       : 0
Calls        : 1
Time         : 3.151s (Solving: 2.08s 1st Model: 0.00s Unsat: 2.08s)
CPU Time     : 3.144s
[ Calling Python ]
[ Solving ready ]
*** Found: 0; skipped: 0
benchmark/automata-network/star_asp/star08.lp 13
-e %----- The attractor computed for benchmark/automata-network/star_asp/star08.lp 
 %----- The size of the attractor = 13 
-e   %----- The attractor computed with Asynchronous Dynamics 

-e CMD: clingo /Users/soh/app/finding_attractors/01_original_from_paper2017/scripts/asynch.lp /Users/soh/app/finding_attractors/02_attractors-new/with-cycle/attractors-preF.lp /Users/soh/app/finding_attractors/02_attractors-new/with-cycle/attractors-postF.lp benchmark/automata-network/star_asp/star08.lp --const n=13 0

clingo version 5.4.0
Reading from ...ginal_from_paper2017/scripts/asynch.lp ...
Solving...
UNSATISFIABLE

Models       : 0
Calls        : 1
Time         : 3.350s (Solving: 1.87s 1st Model: 0.00s Unsat: 1.87s)
CPU Time     : 3.341s
[ Calling Python ]
[ Solving ready ]
*** Found: 0; skipped: 0
benchmark/automata-network/star_asp/star08.lp 14
-e %----- The attractor computed for benchmark/automata-network/star_asp/star08.lp 
 %----- The size of the attractor = 14 
-e   %----- The attractor computed with Asynchronous Dynamics 

-e CMD: clingo /Users/soh/app/finding_attractors/01_original_from_paper2017/scripts/asynch.lp /Users/soh/app/finding_attractors/02_attractors-new/with-cycle/attractors-preF.lp /Users/soh/app/finding_attractors/02_attractors-new/with-cycle/attractors-postF.lp benchmark/automata-network/star_asp/star08.lp --const n=14 0

clingo version 5.4.0
Reading from ...ginal_from_paper2017/scripts/asynch.lp ...
Solving...
UNSATISFIABLE

Models       : 0
Calls        : 1
Time         : 7.106s (Solving: 5.11s 1st Model: 0.00s Unsat: 5.11s)
CPU Time     : 7.098s
[ Calling Python ]
[ Solving ready ]
*** Found: 0; skipped: 0
benchmark/automata-network/star_asp/star08.lp 15
-e %----- The attractor computed for benchmark/automata-network/star_asp/star08.lp 
 %----- The size of the attractor = 15 
-e   %----- The attractor computed with Asynchronous Dynamics 

-e CMD: clingo /Users/soh/app/finding_attractors/01_original_from_paper2017/scripts/asynch.lp /Users/soh/app/finding_attractors/02_attractors-new/with-cycle/attractors-preF.lp /Users/soh/app/finding_attractors/02_attractors-new/with-cycle/attractors-postF.lp benchmark/automata-network/star_asp/star08.lp --const n=15 0

clingo version 5.4.0
Reading from ...ginal_from_paper2017/scripts/asynch.lp ...
Solving...
UNSATISFIABLE

Models       : 0
Calls        : 1
Time         : 5.011s (Solving: 2.33s 1st Model: 0.00s Unsat: 2.33s)
CPU Time     : 5.003s
[ Calling Python ]
[ Solving ready ]
*** Found: 0; skipped: 0
benchmark/automata-network/star_asp/star08.lp 16
-e %----- The attractor computed for benchmark/automata-network/star_asp/star08.lp 
 %----- The size of the attractor = 16 
-e   %----- The attractor computed with Asynchronous Dynamics 

-e CMD: clingo /Users/soh/app/finding_attractors/01_original_from_paper2017/scripts/asynch.lp /Users/soh/app/finding_attractors/02_attractors-new/with-cycle/attractors-preF.lp /Users/soh/app/finding_attractors/02_attractors-new/with-cycle/attractors-postF.lp benchmark/automata-network/star_asp/star08.lp --const n=16 0

clingo version 5.4.0
Reading from ...ginal_from_paper2017/scripts/asynch.lp ...
Solving...
Answer: 1
active(level("A1",1),15) active(level("A2",1),5) active(level("A3",1),1) active(level("A4",1),13) active(level("A5",1),9) active(level("A6",1),11) active(level("A7",1),3) active(level("A8",1),7) active(level("A1",0),1) active(level("A1",0),2) active(level("A1",0),3) active(level("A1",0),4) active(level("A1",0),5) active(level("A1",0),6) active(level("A1",0),7) active(level("A1",0),8) active(level("A1",0),9) active(level("A1",0),10) active(level("A1",0),11) active(level("A1",0),12) active(level("A1",0),13) active(level("A1",0),14) active(level("A1",0),16) active(level("A2",0),1) active(level("A2",0),2) active(level("A2",0),3) active(level("A2",0),4) active(level("A2",0),6) active(level("A2",0),7) active(level("A2",0),8) active(level("A2",0),9) active(level("A2",0),10) active(level("A2",0),11) active(level("A2",0),12) active(level("A2",0),13) active(level("A2",0),14) active(level("A2",0),15) active(level("A2",0),16) active(level("A3",0),2) active(level("A3",0),3) active(level("A3",0),4) active(level("A3",0),5) active(level("A3",0),6) active(level("A3",0),7) active(level("A3",0),8) active(level("A3",0),9) active(level("A3",0),10) active(level("A3",0),11) active(level("A3",0),12) active(level("A3",0),13) active(level("A3",0),14) active(level("A3",0),15) active(level("A3",0),16) active(level("A4",0),1) active(level("A4",0),2) active(level("A4",0),3) active(level("A4",0),4) active(level("A4",0),5) active(level("A4",0),6) active(level("A4",0),7) active(level("A4",0),8) active(level("A4",0),9) active(level("A4",0),10) active(level("A4",0),11) active(level("A4",0),12) active(level("A4",0),14) active(level("A4",0),15) active(level("A4",0),16) active(level("A5",0),1) active(level("A5",0),2) active(level("A5",0),3) active(level("A5",0),4) active(level("A5",0),5) active(level("A5",0),6) active(level("A5",0),7) active(level("A5",0),8) active(level("A5",0),10) active(level("A5",0),11) active(level("A5",0),12) active(level("A5",0),13) active(level("A5",0),14) active(level("A5",0),15) active(level("A5",0),16) active(level("A6",0),1) active(level("A6",0),2) active(level("A6",0),3) active(level("A6",0),4) active(level("A6",0),5) active(level("A6",0),6) active(level("A6",0),7) active(level("A6",0),8) active(level("A6",0),9) active(level("A6",0),10) active(level("A6",0),12) active(level("A6",0),13) active(level("A6",0),14) active(level("A6",0),15) active(level("A6",0),16) active(level("A7",0),1) active(level("A7",0),2) active(level("A7",0),4) active(level("A7",0),5) active(level("A7",0),6) active(level("A7",0),7) active(level("A7",0),8) active(level("A7",0),9) active(level("A7",0),10) active(level("A7",0),11) active(level("A7",0),12) active(level("A7",0),13) active(level("A7",0),14) active(level("A7",0),15) active(level("A7",0),16) active(level("A8",0),1) active(level("A8",0),2) active(level("A8",0),3) active(level("A8",0),4) active(level("A8",0),5) active(level("A8",0),6) active(level("A8",0),8) active(level("A8",0),9) active(level("A8",0),10) active(level("A8",0),11) active(level("A8",0),12) active(level("A8",0),13) active(level("A8",0),14) active(level("A8",0),15) active(level("A8",0),16) active(level("A8",0),0) active(level("A7",0),0) active(level("A6",0),0) active(level("A5",0),0) active(level("A4",0),0) active(level("A3",0),0) active(level("A2",0),0) active(level("A1",0),0) numberStates(9)
SATISFIABLE

Models       : 1
Calls        : 1
Time         : 4.320s (Solving: 1.02s 1st Model: 0.07s Unsat: 0.96s)
CPU Time     : 4.313s
[ Calling Python ]
[ Solving ready ]
*** New model found! (currently 1 solutions found)
{(0, 0, 1, 0, 0, 0, 0, 0), (0, 0, 0, 0, 0, 1, 0, 0), (1, 0, 0, 0, 0, 0, 0, 0), (0, 0, 0, 1, 0, 0, 0, 0), (0, 0, 0, 0, 1, 0, 0, 0), (0, 0, 0, 0, 0, 0, 1, 0), (0, 0, 0, 0, 0, 0, 0, 1), (0, 0, 0, 0, 0, 0, 0, 0), (0, 1, 0, 0, 0, 0, 0, 0)}
*** Found: 1; skipped: 0
s SATISFIABLE
	Command being timed: "/Users/soh/app/finding_attractors/incremental-finding.sh benchmark/automata-network/star_asp/star08.lp 16"
	User time (seconds): 26.65
	System time (seconds): 0.45
	Percent of CPU this job got: 99%
	Elapsed (wall clock) time (h:mm:ss or m:ss): 0:27.33
	Average shared text size (kbytes): 0
	Average unshared data size (kbytes): 0
	Average stack size (kbytes): 0
	Average total size (kbytes): 0
	Maximum resident set size (kbytes): 430505984
	Average resident set size (kbytes): 0
	Major (requiring I/O) page faults: 1
	Minor (reclaiming a frame) page faults: 164971
	Voluntary context switches: 473
	Involuntary context switches: 2272
	Swaps: 0
	File system inputs: 0
	File system outputs: 0
	Socket messages sent: 825
	Socket messages received: 0
	Signals delivered: 1
	Page size (bytes): 4096
	Exit status: 0
FINISHED CPU 27.1 MEM 0 MAXMEM 0 STALE 1
#RESULT: SAT
#FIN: FIN
#CPU: 27.1
#MAXMEM: 0
c 
#END: [Fri Oct 28 11:37:27 2022]
